0 1
0 2
0 3
1 65
1 67
2 64
2 66
3 62
3 63
4 5
4 6
4 61
5 51
5 52
6 53
6 54
7 8
7 44
7 46
8 9
8 10
9 41
9 43
10 40
10 42
11 39
11 56
11 57
12 14
12 20
12 28
13 14
13 15
13 45
14 22
15 20
15 21
16 17
16 47
16 49
17 18
17 23
18 24
18 25
19 20
19 22
19 23
21 22
21 50
23 33
24 27
24 31
25 26
25 30
26 31
26 48
27 30
27 58
28 29
28 32
29 35
29 55
30 36
31 36
32 33
32 34
33 35
34 38
34 55
35 38
36 37
37 43
37 59
38 42
39 40
39 41
40 43
41 42
44 52
44 60
45 46
45 52
46 51
47 50
47 54
48 49
48 54
49 53
50 53
51 60
55 67
56 59
56 63
57 58
57 62
58 63
59 62
60 66
61 64
61 65
64 67
65 66
