0 1
0 5
0 31
1 2
1 6
2 7
2 100
3 5
3 6
3 11
4 6
4 7
4 9
5 7
8 9
8 10
8 11
9 14
10 12
10 20
11 28
12 13
12 17
13 14
13 18
14 19
15 17
15 18
15 22
16 18
16 19
16 56
17 19
20 21
20 25
21 22
21 26
22 27
23 25
23 26
23 30
24 26
24 27
24 39
25 27
28 29
28 33
29 30
29 34
30 35
31 33
31 34
32 34
32 35
32 37
33 35
36 37
36 38
36 39
37 42
38 64
38 92
39 78
40 41
40 45
40 71
41 42
41 46
42 47
43 45
43 46
43 51
44 46
44 47
44 49
45 47
48 49
48 50
48 51
49 54
50 52
50 60
51 68
52 53
52 57
53 54
53 58
54 59
55 57
55 58
55 62
56 58
56 59
57 59
60 61
60 65
61 62
61 66
62 67
63 65
63 66
63 70
64 66
64 67
65 67
68 69
68 73
69 70
69 74
70 75
71 73
71 74
72 74
72 75
72 108
73 75
76 77
76 81
76 107
77 78
77 82
78 83
79 81
79 82
79 87
80 82
80 83
80 85
81 83
84 85
84 86
84 87
85 90
86 88
86 96
87 104
88 89
88 93
89 90
89 94
90 95
91 93
91 94
91 98
92 94
92 95
93 95
96 97
96 101
97 98
97 102
98 103
99 101
99 102
99 106
100 102
100 103
101 103
104 105
104 109
105 106
105 110
106 111
107 109
107 110
108 110
108 111
109 111
