0 1
0 5
0 31
1 2
1 6
2 7
2 52
3 5
3 6
3 11
4 6
4 7
4 9
5 7
8 9
8 10
8 11
9 14
10 12
10 20
11 28
12 13
12 17
13 14
13 18
14 19
15 17
15 18
15 22
16 18
16 19
16 74
17 19
20 21
20 25
21 22
21 26
22 27
23 25
23 26
23 30
24 26
24 27
24 109
25 27
28 29
28 33
29 30
29 34
30 35
31 33
31 34
32 34
32 35
32 111
33 35
36 37
36 41
36 67
37 38
37 42
38 43
38 88
39 41
39 42
39 47
40 42
40 43
40 45
41 43
44 45
44 46
44 47
45 50
46 48
46 56
47 64
48 49
48 53
49 50
49 54
50 55
51 53
51 54
51 58
52 54
52 55
53 55
56 57
56 61
57 58
57 62
58 63
59 61
59 62
59 66
60 62
60 63
60 110
61 63
64 65
64 69
65 66
65 70
66 71
67 69
67 70
68 70
68 71
68 109
69 71
72 73
72 77
72 103
73 74
73 78
74 79
75 77
75 78
75 83
76 78
76 79
76 81
77 79
80 81
80 82
80 83
81 86
82 84
82 92
83 100
84 85
84 89
85 86
85 90
86 91
87 89
87 90
87 94
88 90
88 91
89 91
92 93
92 97
93 94
93 98
94 99
95 97
95 98
95 102
96 98
96 99
96 111
97 99
100 101
100 105
101 102
101 106
102 107
103 105
103 106
104 106
104 107
104 110
105 107
108 109
108 110
108 111
